p cnf 999 637
135 0
223 0
234 0
281 0
318 0
321 0
336 0
353 0
365 0
427 0
458 0
549 0
563 0
572 0
584 0
612 0
685 0
788 0
791 0
861 0
893 0
913 0
966 0
975 0
989 0
992 0
-131 0
-132 0
-133 0
-134 0
-136 0
-137 0
-138 0
-139 0
-221 0
-222 0
-224 0
-225 0
-226 0
-227 0
-228 0
-229 0
-231 0
-232 0
-233 0
-235 0
-236 0
-237 0
-238 0
-239 0
-282 0
-283 0
-284 0
-285 0
-286 0
-287 0
-288 0
-289 0
-311 0
-312 0
-313 0
-314 0
-315 0
-316 0
-317 0
-319 0
-322 0
-323 0
-324 0
-325 0
-326 0
-327 0
-328 0
-329 0
-331 0
-332 0
-333 0
-334 0
-335 0
-337 0
-338 0
-339 0
-351 0
-352 0
-354 0
-355 0
-356 0
-357 0
-358 0
-359 0
-361 0
-362 0
-363 0
-364 0
-366 0
-367 0
-368 0
-369 0
-421 0
-422 0
-423 0
-424 0
-425 0
-426 0
-428 0
-429 0
-451 0
-452 0
-453 0
-454 0
-455 0
-456 0
-457 0
-459 0
-541 0
-542 0
-543 0
-544 0
-545 0
-546 0
-547 0
-548 0
-561 0
-562 0
-564 0
-565 0
-566 0
-567 0
-568 0
-569 0
-571 0
-573 0
-574 0
-575 0
-576 0
-577 0
-578 0
-579 0
-581 0
-582 0
-583 0
-585 0
-586 0
-587 0
-588 0
-589 0
-611 0
-613 0
-614 0
-615 0
-616 0
-617 0
-618 0
-619 0
-681 0
-682 0
-683 0
-684 0
-686 0
-687 0
-688 0
-689 0
-781 0
-782 0
-783 0
-784 0
-785 0
-786 0
-787 0
-789 0
-792 0
-793 0
-794 0
-795 0
-796 0
-797 0
-798 0
-799 0
-862 0
-863 0
-864 0
-865 0
-866 0
-867 0
-868 0
-869 0
-891 0
-892 0
-894 0
-895 0
-896 0
-897 0
-898 0
-899 0
-911 0
-912 0
-914 0
-915 0
-916 0
-917 0
-918 0
-919 0
-961 0
-962 0
-963 0
-964 0
-965 0
-967 0
-968 0
-969 0
-971 0
-972 0
-973 0
-974 0
-976 0
-977 0
-978 0
-979 0
-981 0
-982 0
-983 0
-984 0
-985 0
-986 0
-987 0
-988 0
-991 0
-993 0
-994 0
-995 0
-996 0
-997 0
-998 0
-999 0
-111 0
-121 0
-211 0
-113 0
-123 0
-213 0
-114 0
-124 0
-214 0
-115 0
-125 0
-215 0
-116 0
-126 0
-216 0
-118 0
-128 0
-218 0
-143 0
-153 0
-163 0
-243 0
-253 0
-263 0
-343 0
-145 0
-155 0
-165 0
-245 0
-255 0
-265 0
-345 0
-171 0
-181 0
-191 0
-271 0
-291 0
-371 0
-381 0
-391 0
-412 0
-432 0
-512 0
-522 0
-532 0
-622 0
-632 0
-417 0
-437 0
-517 0
-527 0
-537 0
-627 0
-637 0
-443 0
-463 0
-553 0
-643 0
-653 0
-663 0
-448 0
-468 0
-558 0
-648 0
-658 0
-668 0
-449 0
-469 0
-559 0
-649 0
-659 0
-669 0
-472 0
-482 0
-492 0
-592 0
-672 0
-692 0
-474 0
-484 0
-494 0
-594 0
-674 0
-694 0
-475 0
-485 0
-495 0
-595 0
-675 0
-695 0
-713 0
-723 0
-733 0
-813 0
-823 0
-833 0
-923 0
-933 0
-741 0
-751 0
-761 0
-841 0
-851 0
-941 0
-951 0
-746 0
-756 0
-766 0
-846 0
-856 0
-946 0
-956 0
-771 0
-871 0
-881 0
-772 0
-872 0
-882 0
-773 0
-873 0
-883 0
-775 0
-875 0
-885 0
-778 0
-878 0
-888 0
-779 0
-879 0
-889 0
-175 0
-185 0
-195 0
-241 0
-251 0
-261 0
-273 0
-293 0
-244 0
-254 0
-264 0
-274 0
-294 0
-341 0
-373 0
-383 0
-393 0
-375 0
-385 0
-395 0
-346 0
-376 0
-386 0
-396 0
-348 0
-378 0
-388 0
-398 0
-447 0
-467 0
-477 0
-487 0
-497 0
-418 0
-438 0
-478 0
-488 0
-498 0
-552 0
-513 0
-523 0
-533 0
-593 0
-514 0
-524 0
-534 0
-554 0
-519 0
-529 0
-539 0
-599 0
-642 0
-652 0
-662 0
-625 0
-635 0
-645 0
-655 0
-665 0
-711 0
-721 0
-731 0
-718 0
-728 0
-738 0
-748 0
-758 0
-768 0
-811 0
-821 0
-831 0
-843 0
-853 0
-922 0
-932 0
-942 0
-952 0
-943 0
-953 0
-925 0
-935 0
-945 0
-955 0
-926 0
-936 0
-929 0
-939 0
-949 0
-959 0
-112 0
-212 0
-712 0
-812 0
-413 0
-518 0
-818 0
-521 0
-621 0
-921 0
-623 0
-127 0
-727 0
-827 0
-927 0
-434 0
-634 0
-734 0
-834 0
-934 0
-435 0
-535 0
-735 0
-835 0
-436 0
-536 0
-636 0
-736 0
-836 0
-149 0
-249 0
-349 0
-749 0
-849 0
-753 0
-158 0
-258 0
-858 0
-958 0
-161 0
-461 0
-661 0
-763 0
-465 0
-765 0
-166 0
-266 0
-466 0
-666 0
-172 0
-272 0
-372 0
-275 0
-481 0
-184 0
-384 0
-884 0
-188 0
-189 0
-389 0
-489 0
-491 0
-591 0
-691 0
-192 0
-292 0
-392 0
-193 0
-493 0
-693 0
122 0
295 0
931 0
743 0
-129 0
-296 0
-297 0
-298 0
-299 0
-742 0
-744 0
-745 0
-747 0
-937 0
-938 0
-142 0
-152 0
-162 0
-182 0
-722 0
-822 0
-431 0
-531 0
-631 0
538 0
382 0
-387 0
-528 0
-628 0
-638 0
-342 0
-598 0
-838 0
197 0
-194 0
-196 0
-198 0
-199 0
-177 0
-187 0
-277 0
-377 0
-397 0
-117 0
-147 0
-157 0
-167 0
-597 0
-697 0
119 0
596 0
217 0
677 0
347 0
557 0
887 0
394 0
698 0
-219 0
-344 0
-399 0
-551 0
-555 0
-556 0
-671 0
-673 0
-676 0
-678 0
-679 0
-696 0
-699 0
-886 0
-247 0
-257 0
-267 0
-174 0
-374 0
-647 0
-657 0
-667 0
-476 0
-486 0
-496 0
-777 0
-877 0
-159 0
-169 0
-179 0
-516 0
-526 0
-817 0
-837 0
-847 0
-857 0
-717 0
-419 0
-719 0
-819 0
-947 0
-757 0
-957 0
379 0
483 0
499 0
525 0
664 0
954 0
445 0
471 0
737 0
767 0
511 0
633 0
186 0